12
0 37 56 18 28 16 76 56 4 82 100 60 
2 0 32 92 92 6 5 51 47 18 72 10 
32 31 0 25 88 60 1 31 60 4 93 54 
94 27 5 0 94 91 53 70 7 47 81 5 
82 12 65 28 0 4 13 15 50 14 32 17 
29 65 40 97 55 0 70 1 6 79 41 53 
23 21 21 39 73 69 0 99 82 59 4 12 
28 33 4 52 35 76 69 0 45 8 93 71 
95 87 56 82 98 94 68 3 0 88 81 52 
17 27 57 60 28 62 47 83 17 0 43 72 
63 26 25 51 59 19 39 86 72 9 0 53 
40 60 74 93 63 11 30 89 61 54 64 0 
